c uprop, v00.0, 
c reading from data/prog694.c.cnf
c done reading: 0.002333
p cnf 179 874
-84 -105 0
-84 -101 0
84 101 105 0
-78 101 105 0
-78 -101 -105 0
78 101 -105 0
78 -101 105 0
84 -96 0
-94 -96 0
-84 94 96 0
-84 -89 94 0
84 -89 -94 0
84 89 94 0
-84 89 -94 0
-85 96 0
-82 -85 0
82 85 -96 0
-80 82 -96 0
-80 -82 96 0
80 82 96 0
80 -82 -96 0
-79 85 0
-76 -79 0
76 79 -85 0
76 -85 -103 0
-76 85 -103 0
76 85 103 0
-76 -85 103 0
79 -107 0
-98 -107 0
-79 98 107 0
-79 98 -108 0
79 -98 -108 0
79 98 108 0
-79 -98 108 0
107 -109 0
-91 -109 0
91 -107 109 0
91 -107 -110 0
-91 107 -110 0
91 107 110 0
-91 -107 110 0
109 -111 0
-87 -111 0
87 -109 111 0
87 -109 -112 0
-87 109 -112 0
87 109 112 0
-87 -109 112 0
94 -113 0
105 -113 0
-94 -105 113 0
-94 -105 -114 0
94 105 -114 0
-94 105 114 0
94 -105 114 0
-82 -101 115 0
-82 -113 115 0
-101 -113 115 0
82 101 -115 0
82 113 -115 0
101 113 -115 0
82 -115 -116 0
101 -115 -116 0
113 -115 -116 0
-82 115 116 0
-101 115 116 0
-113 115 116 0
-82 -101 -113 116 0
82 101 113 -116 0
-76 -94 117 0
-76 -115 117 0
-94 -115 117 0
76 94 -117 0
76 115 -117 0
94 115 -117 0
76 -117 -118 0
94 -117 -118 0
115 -117 -118 0
-76 117 118 0
-94 117 118 0
-115 117 118 0
-76 -94 -115 118 0
76 94 115 -118 0
-82 -98 119 0
-98 -117 119 0
-82 -117 119 0
82 98 -119 0
98 117 -119 0
82 117 -119 0
-74 98 -119 0
-74 82 -119 0
-74 117 -119 0
74 -98 119 0
74 -82 119 0
74 -117 119 0
74 -82 -98 -117 0
-74 82 98 117 0
73 -76 -91 0
73 -91 -119 0
73 -76 -119 0
-73 76 91 0
-73 91 119 0
-73 76 119 0
-72 -73 91 0
-72 -73 76 0
-72 -73 119 0
72 73 -91 0
72 73 -76 0
72 73 -119 0
72 -76 -91 -119 0
-72 76 91 119 0
71 -87 -98 0
71 -73 -87 0
71 -73 -98 0
-71 87 98 0
-71 73 87 0
-71 73 98 0
-70 -71 87 0
-70 -71 98 0
-70 -71 73 0
70 71 -87 0
70 71 -98 0
70 71 -73 0
70 -73 -87 -98 0
-70 73 87 98 0
-69 91 0
-69 71 0
69 -71 -91 0
-71 -91 -104 0
71 91 -104 0
71 -91 104 0
-71 91 104 0
87 -100 0
69 -100 0
-69 -87 100 0
-69 -87 -93 0
69 87 -93 0
69 -87 93 0
-69 87 93 0
-81 116 0
-81 105 0
81 -105 -116 0
-75 -105 -116 0
-75 105 116 0
75 105 -116 0
75 -105 116 0
97 -101 -118 0
-81 97 -118 0
-81 97 -101 0
-97 101 118 0
81 -97 118 0
81 -97 101 0
-90 -97 118 0
-90 -97 101 0
81 -90 -97 0
90 97 -118 0
90 97 -101 0
-81 90 97 0
-81 90 -101 -118 0
81 -90 101 118 0
-74 86 -94 0
-74 86 -97 0
86 -94 -97 0
74 -86 94 0
74 -86 97 0
-86 94 97 0
-68 74 -86 0
-68 -86 94 0
-68 -86 97 0
68 -74 86 0
68 86 -94 0
68 86 -97 0
68 -74 -94 -97 0
-68 74 94 97 0
67 -72 -82 0
67 -72 -86 0
67 -82 -86 0
-67 72 82 0
-67 72 86 0
-67 82 86 0
-66 -67 72 0
-66 -67 82 0
-66 -67 86 0
66 67 -72 0
66 67 -82 0
66 67 -86 0
66 -72 -82 -86 0
-66 72 82 86 0
65 -70 -76 0
65 -67 -70 0
65 -67 -76 0
-65 70 76 0
-65 67 70 0
-65 67 76 0
-64 -65 70 0
-64 -65 76 0
-64 -65 67 0
64 65 -70 0
64 65 -76 0
64 65 -67 0
64 -67 -70 -76 0
-64 67 70 76 0
63 -98 -104 0
63 -65 -104 0
63 -65 -98 0
-63 98 104 0
-63 65 104 0
-63 65 98 0
-62 -63 104 0
-62 -63 98 0
-62 -63 65 0
62 63 -104 0
62 63 -98 0
62 63 -65 0
62 -65 -98 -104 0
-62 65 98 104 0
61 -91 -93 0
61 -63 -93 0
61 -63 -91 0
-61 91 93 0
-61 63 93 0
-61 63 91 0
-60 -61 93 0
-60 -61 91 0
-60 -61 63 0
60 61 -93 0
60 61 -91 0
60 61 -63 0
60 -63 -91 -93 0
-60 63 91 93 0
59 -87 -100 0
59 -61 -100 0
59 -61 -87 0
-59 87 100 0
-59 61 100 0
-59 61 87 0
-58 -59 100 0
-58 -59 87 0
-58 -59 61 0
58 59 -100 0
58 59 -87 0
58 59 -61 0
58 -61 -87 -100 0
-58 61 87 100 0
-57 -105 0
-57 -101 0
57 101 105 0
-56 101 105 0
-56 -101 -105 0
56 101 -105 0
56 -101 105 0
-55 57 0
-55 -114 0
55 -57 114 0
-54 -57 114 0
-54 57 -114 0
54 57 114 0
54 -57 -114 0
-53 55 0
-53 -75 0
53 -55 75 0
-55 75 -120 0
55 -75 -120 0
55 75 120 0
-55 -75 120 0
53 -121 0
-90 -121 0
-53 90 121 0
-53 90 -122 0
53 -90 -122 0
53 90 122 0
-53 -90 122 0
121 -123 0
-68 -123 0
68 -121 123 0
68 -121 -124 0
-68 121 -124 0
68 121 124 0
-68 -121 124 0
123 -125 0
-66 -125 0
66 -123 125 0
66 -123 -126 0
-66 123 -126 0
66 123 126 0
-66 -123 126 0
125 -127 0
-64 -127 0
64 -125 127 0
64 -125 -128 0
-64 125 -128 0
64 125 128 0
-64 -125 128 0
127 -129 0
-62 -129 0
62 -127 129 0
62 -127 -130 0
-62 127 -130 0
62 127 130 0
-62 -127 130 0
129 -131 0
-60 -131 0
60 -129 131 0
60 -129 -132 0
-60 129 -132 0
60 129 132 0
-60 -129 132 0
131 -133 0
-58 -133 0
58 -131 133 0
58 -131 -134 0
-58 131 -134 0
58 131 134 0
-58 -131 134 0
133 -135 0
-59 -135 0
59 -133 135 0
59 -133 -136 0
-59 133 -136 0
59 133 136 0
-59 -133 136 0
-137 -139 0
137 139 0
-140 -142 0
140 142 0
-143 -145 0
143 145 0
-146 -148 0
146 148 0
-149 -151 0
149 151 0
-152 -154 0
152 154 0
-155 -157 0
155 157 0
140 -158 0
-140 158 0
-140 -159 0
140 159 0
-137 -143 160 0
-143 -158 160 0
-137 -158 160 0
137 143 -160 0
143 158 -160 0
137 158 -160 0
143 -160 -161 0
137 -160 -161 0
158 -160 -161 0
-143 160 161 0
-137 160 161 0
-158 160 161 0
-137 -143 -158 161 0
137 143 158 -161 0
-140 -146 162 0
-146 -160 162 0
-140 -160 162 0
140 146 -162 0
146 160 -162 0
140 160 -162 0
146 -162 -163 0
140 -162 -163 0
160 -162 -163 0
-146 162 163 0
-140 162 163 0
-160 162 163 0
-140 -146 -160 163 0
140 146 160 -163 0
-143 -149 164 0
-149 -162 164 0
-143 -162 164 0
143 149 -164 0
149 162 -164 0
143 162 -164 0
149 -164 -165 0
143 -164 -165 0
162 -164 -165 0
-149 164 165 0
-143 164 165 0
-162 164 165 0
-143 -149 -162 165 0
143 149 162 -165 0
-146 -152 166 0
-152 -164 166 0
-146 -164 166 0
146 152 -166 0
152 164 -166 0
146 164 -166 0
152 -166 -167 0
146 -166 -167 0
164 -166 -167 0
-152 166 167 0
-146 166 167 0
-164 166 167 0
-146 -152 -164 167 0
146 152 164 -167 0
-149 -155 168 0
-155 -166 168 0
-149 -166 168 0
149 155 -168 0
155 166 -168 0
149 166 -168 0
155 -168 -169 0
149 -168 -169 0
166 -168 -169 0
-155 168 169 0
-149 168 169 0
-166 168 169 0
-149 -155 -166 169 0
149 155 166 -169 0
152 -170 0
168 -170 0
-152 -168 170 0
-106 -152 -168 0
-106 152 168 0
106 -152 168 0
106 152 -168 0
-102 155 0
-102 170 0
102 -155 -170 0
-95 -155 -170 0
-95 155 170 0
95 -155 170 0
95 155 -170 0
-83 161 0
83 -161 0
-77 -161 0
77 161 0
99 -137 -163 0
-83 99 -163 0
-83 99 -137 0
-99 137 163 0
83 -99 163 0
83 -99 137 0
-92 -99 163 0
-92 -99 137 0
83 -92 -99 0
92 99 -163 0
92 99 -137 0
-83 92 99 0
-83 92 -137 -163 0
83 -92 137 163 0
88 -140 -165 0
88 -99 -165 0
88 -99 -140 0
-88 140 165 0
-88 99 165 0
-88 99 140 0
-88 165 -171 0
-88 140 -171 0
-88 99 -171 0
88 -165 171 0
88 -140 171 0
88 -99 171 0
-99 -140 -165 171 0
99 140 165 -171 0
138 -143 -167 0
-88 138 -167 0
-88 138 -143 0
-138 143 167 0
88 -138 167 0
88 -138 143 0
-138 -141 167 0
-138 -141 143 0
88 -138 -141 0
138 141 -167 0
138 141 -143 0
-88 138 141 0
-88 141 -143 -167 0
88 -141 143 167 0
144 -146 -169 0
-138 144 -169 0
-138 144 -146 0
-144 146 169 0
138 -144 169 0
138 -144 146 0
-144 -147 169 0
-144 146 -147 0
138 -144 -147 0
144 147 -169 0
144 -146 147 0
-138 144 147 0
-138 -146 147 -169 0
138 146 -147 169 0
-106 -149 150 0
-106 -144 150 0
-144 -149 150 0
106 149 -150 0
106 144 -150 0
144 149 -150 0
106 -150 -153 0
149 -150 -153 0
144 -150 -153 0
-106 150 153 0
-149 150 153 0
-144 150 153 0
-106 -144 -149 153 0
106 144 149 -153 0
-95 -152 156 0
-95 -150 156 0
-150 -152 156 0
95 152 -156 0
95 150 -156 0
150 152 -156 0
95 -156 -172 0
152 -156 -172 0
150 -156 -172 0
-95 156 172 0
-152 156 172 0
-150 156 172 0
-95 -150 -152 172 0
95 150 152 -172 0
-102 -155 173 0
-102 -156 173 0
-155 -156 173 0
102 155 -173 0
102 156 -173 0
155 156 -173 0
102 -173 -174 0
155 -173 -174 0
156 -173 -174 0
-102 173 174 0
-155 173 174 0
-156 173 174 0
-102 -155 -156 174 0
102 155 156 -174 0
92 -175 0
-92 175 0
-92 -176 0
92 176 0
-137 -171 177 0
-171 -175 177 0
-137 -175 177 0
137 171 -177 0
171 175 -177 0
137 175 -177 0
171 -177 -178 0
137 -177 -178 0
175 -177 -178 0
-171 177 178 0
-137 177 178 0
-175 177 178 0
-137 -171 -175 178 0
137 171 175 -178 0
-140 -141 179 0
-141 -177 179 0
-140 -177 179 0
140 141 -179 0
141 177 -179 0
140 177 -179 0
-52 141 -179 0
-52 140 -179 0
-52 177 -179 0
52 -141 179 0
52 -140 179 0
52 -177 179 0
52 -140 -141 -177 0
-52 140 141 177 0
51 -143 -147 0
51 -147 -179 0
51 -143 -179 0
-51 143 147 0
-51 147 179 0
-51 143 179 0
-50 -51 147 0
-50 -51 143 0
-50 -51 179 0
50 51 -147 0
50 51 -143 0
50 51 -179 0
50 -143 -147 -179 0
-50 143 147 179 0
49 -146 -153 0
49 -51 -153 0
49 -51 -146 0
-49 146 153 0
-49 51 153 0
-49 51 146 0
-48 -49 153 0
-48 -49 146 0
-48 -49 51 0
48 49 -153 0
48 49 -146 0
48 49 -51 0
48 -51 -146 -153 0
-48 51 146 153 0
47 -149 -172 0
47 -49 -172 0
47 -49 -149 0
-47 149 172 0
-47 49 172 0
-47 49 149 0
-46 -47 172 0
-46 -47 149 0
-46 -47 49 0
46 47 -172 0
46 47 -149 0
46 47 -49 0
46 -49 -149 -172 0
-46 49 149 172 0
45 -152 -174 0
45 -47 -174 0
45 -47 -152 0
-45 152 174 0
-45 47 174 0
-45 47 152 0
-44 -45 174 0
-44 -45 152 0
-44 -45 47 0
44 45 -174 0
44 45 -152 0
44 45 -47 0
44 -47 -152 -174 0
-44 47 152 174 0
43 -155 -173 0
43 -45 -173 0
43 -45 -155 0
-43 155 173 0
-43 45 173 0
-43 45 155 0
-42 -43 173 0
-42 -43 155 0
-42 -43 45 0
42 43 -173 0
42 43 -155 0
42 43 -45 0
42 -45 -155 -173 0
-42 45 155 173 0
-41 178 0
41 -178 0
-40 -178 0
40 178 0
39 -52 -137 0
39 -41 -52 0
39 -41 -137 0
-39 52 137 0
-39 41 52 0
-39 41 137 0
-38 -39 52 0
-38 -39 137 0
-38 -39 41 0
38 39 -52 0
38 39 -137 0
38 39 -41 0
38 -41 -52 -137 0
-38 41 52 137 0
37 -50 -140 0
37 -39 -50 0
37 -39 -140 0
-37 50 140 0
-37 39 50 0
-37 39 140 0
-36 -37 50 0
-36 -37 140 0
-36 -37 39 0
36 37 -50 0
36 37 -140 0
36 37 -39 0
36 -39 -50 -140 0
-36 39 50 140 0
35 -48 -143 0
35 -37 -48 0
35 -37 -143 0
-35 48 143 0
-35 37 48 0
-35 37 143 0
-34 -35 48 0
-34 -35 143 0
-34 -35 37 0
34 35 -48 0
34 35 -143 0
34 35 -37 0
34 -37 -48 -143 0
-34 37 48 143 0
33 -46 -146 0
33 -35 -46 0
33 -35 -146 0
-33 46 146 0
-33 35 46 0
-33 35 146 0
-32 -33 46 0
-32 -33 146 0
-32 -33 35 0
32 33 -46 0
32 33 -146 0
32 33 -35 0
32 -35 -46 -146 0
-32 35 46 146 0
31 -44 -149 0
31 -33 -44 0
31 -33 -149 0
-31 44 149 0
-31 33 44 0
-31 33 149 0
-30 -31 44 0
-30 -31 149 0
-30 -31 33 0
30 31 -44 0
30 31 -149 0
30 31 -33 0
30 -33 -44 -149 0
-30 33 44 149 0
29 -42 -152 0
29 -31 -42 0
29 -31 -152 0
-29 42 152 0
-29 31 42 0
-29 31 152 0
-28 -29 42 0
-28 -29 152 0
-28 -29 31 0
28 29 -42 0
28 29 -152 0
28 29 -31 0
28 -31 -42 -152 0
-28 31 42 152 0
27 -43 -155 0
27 -29 -43 0
27 -29 -155 0
-27 43 155 0
-27 29 43 0
-27 29 155 0
-26 -27 43 0
-26 -27 155 0
-26 -27 29 0
26 27 -43 0
26 27 -155 0
26 27 -29 0
26 -29 -43 -155 0
-26 29 43 155 0
-25 -137 0
25 137 0
-24 -159 0
24 159 0
-23 -77 0
23 77 0
-22 -176 0
22 176 0
-21 -40 0
21 40 0
-20 -38 0
20 38 0
-19 -36 0
19 36 0
-18 -34 0
18 34 0
-17 -32 0
17 32 0
-16 -30 0
16 30 0
-15 -28 0
15 28 0
-14 -26 0
14 26 0
-13 -27 0
13 27 0
-12 105 0
-12 137 0
12 -105 -137 0
-105 -137 0
105 137 0
11 -101 -159 0
11 -12 -101 0
11 -12 -159 0
-11 101 159 0
-11 12 101 0
-11 12 159 0
-11 101 0
-11 159 0
-11 12 0
12 101 159 0
10 -77 -114 0
10 -11 -114 0
10 -11 -77 0
-10 77 114 0
-10 11 114 0
-10 11 77 0
-10 114 0
-10 77 0
-10 11 0
11 77 114 0
9 -75 -176 0
9 -10 -75 0
9 -10 -176 0
-9 75 176 0
-9 10 75 0
-9 10 176 0
9 -75 0
9 -176 0
9 -10 0
-10 -75 -176 0
8 -40 -90 0
8 -9 -90 0
8 -9 -40 0
-8 40 90 0
-8 9 90 0
-8 9 40 0
8 -90 0
8 -40 0
8 -9 0
-9 -40 -90 0
7 -38 -68 0
7 -8 -68 0
7 -8 -38 0
-7 38 68 0
-7 8 68 0
-7 8 38 0
7 -68 0
7 -38 0
7 -8 0
-8 -38 -68 0
6 -36 -66 0
6 -7 -66 0
6 -7 -36 0
-6 36 66 0
-6 7 66 0
-6 7 36 0
6 -66 0
6 -36 0
6 -7 0
-7 -36 -66 0
5 -34 -64 0
5 -6 -64 0
5 -6 -34 0
-5 34 64 0
-5 6 64 0
-5 6 34 0
5 -64 0
5 -34 0
5 -6 0
-6 -34 -64 0
4 -32 -62 0
4 -5 -62 0
4 -5 -32 0
-4 32 62 0
-4 5 62 0
-4 5 32 0
4 -62 0
4 -32 0
4 -5 0
-5 -32 -62 0
3 -30 -60 0
3 -4 -60 0
3 -4 -30 0
-3 30 60 0
-3 4 60 0
-3 4 30 0
3 -60 0
3 -30 0
3 -4 0
-4 -30 -60 0
2 -28 -58 0
2 -3 -58 0
2 -3 -28 0
-2 28 58 0
-2 3 58 0
-2 3 28 0
2 -58 0
2 -28 0
2 -3 0
-3 -28 -58 0
1 -26 -59 0
1 -2 -59 0
1 -2 -26 0
-1 26 59 0
-1 2 59 0
-1 2 26 0
1 -59 0
1 -26 0
1 -2 0
-2 -26 -59 0
-1 -27 0
1 -27 0
-1 27 0
